c This is a CNF SAT formula in the DIMACS CNF format,
c produced with the bc2cnf translator by Tommi Junttila;
c see http://users.ics.aalto.fi/tjunttil/circuits/index.html
c phi_Gamma <-> 1
c phi_T_feature_det <-> 1
c phi_T_transitions <-> 1
c phi_T_transitions_consistency <-> 1
c phi_T <-> 1
c phi_sim_leaves <-> 1
c phi_sim_transition <-> 1
c phi_sim <-> 1
c FORMULA <-> 1
c pi_1_5 <-> 2
c pi_1_9 <-> 2
c pi_0_5 <-> 13
c pi_0_9 <-> 13
c pi_1_8 <-> 28
c pi_0_8 <-> 39
c pi_1_6 <-> 54
c pi_1_7 <-> 54
c pi_0_6 <-> 61
c pi_0_7 <-> 61
c pi_1_1 <-> 75
c pi_1_3 <-> 75
c pi_1_4 <-> 75
c pi_0_1 <-> 76
c pi_0_3 <-> 76
c pi_0_4 <-> 76
c pi_1_2 <-> 84
c pi_0_2 <-> 90
c pi_1_0 <-> 104
c pi_0_0 <-> 105
c alp_Class_3_0 <-> 118
c alp_Class_2_0 <-> 118
c alp_Class_0_0 <-> 118
c alp_Class_3_1 <-> 118
c alp_Class_2_1 <-> 118
c alp_Class_0_1 <-> 118
c alp_Class_3_2 <-> 118
c alp_Class_2_2 <-> 118
c alp_Class_0_2 <-> 118
c alp_Class_3_3 <-> 118
c alp_Class_2_3 <-> 118
c alp_Class_0_3 <-> 118
c alp_Class_3_4 <-> 118
c alp_Class_2_4 <-> 118
c alp_Class_0_4 <-> 118
c alp_Class_3_5 <-> 118
c alp_Class_2_5 <-> 118
c alp_Class_0_5 <-> 118
c alp_Class_3_6 <-> 118
c alp_Class_2_6 <-> 118
c alp_Class_0_6 <-> 118
c alp_Class_3_7 <-> 118
c alp_Class_2_7 <-> 118
c alp_Class_0_7 <-> 118
c alp_Class_3_8 <-> 118
c alp_Class_2_8 <-> 118
c alp_Class_1_8 <-> 118
c alp_Class_3_9 <-> 118
c alp_Class_2_9 <-> 118
c alp_Class_0_9 <-> 118
c alp_Class_0_8 <-> 119
c Class_P0 <-> 119
c alp_Class_1_0 <-> 120
c alp_Class_1_1 <-> 120
c alp_Class_1_2 <-> 120
c alp_Class_1_3 <-> 120
c alp_Class_1_4 <-> 120
c alp_Class_1_5 <-> 120
c alp_Class_1_6 <-> 120
c alp_Class_1_7 <-> 120
c alp_Class_1_9 <-> 120
c Class_P100 <-> 120
c tau_1_3_Class_3 <-> 184
c tau_1_3_Class_2 <-> 186
c tau_1_3_Class_1 <-> 187
c tau_1_3_Class_0 <-> 188
c tau_1_2_Class_3 <-> 201
c tau_1_2_Class_2 <-> 203
c tau_1_2_Class_1 <-> 204
c tau_1_2_Class_0 <-> 205
c tau_1_1_Class_3 <-> 206
c tau_1_1_Class_2 <-> 207
c tau_1_1_Class_1 <-> 208
c tau_1_1_Class_0 <-> 209
c tau_1_0_Class_3 <-> 210
c tau_1_0_Class_2 <-> 211
c tau_1_0_Class_1 <-> 212
c tau_1_0_Class_0 <-> 213
c tau_0_3_Class_3 <-> 279
c tau_0_3_Class_2 <-> 281
c tau_0_3_Class_1 <-> 283
c tau_0_3_Class_0 <-> 284
c tau_0_3_1 <-> 285
c tau_0_2_Class_3 <-> 306
c tau_0_2_Class_2 <-> 308
c tau_0_2_Class_1 <-> 310
c tau_0_2_Class_0 <-> 311
c tau_0_2_1 <-> 312
c tau_0_1_Class_3 <-> 313
c tau_0_1_Class_2 <-> 314
c tau_0_1_Class_1 <-> 315
c tau_0_1_Class_0 <-> 316
c tau_0_1_1 <-> 317
c tau_0_0_Class_3 <-> 318
c tau_0_0_Class_2 <-> 319
c tau_0_0_Class_1 <-> 320
c tau_0_0_Class_0 <-> 321
c tau_0_0_1 <-> 322
c lam_1_median_income <-> 326
c lam_1_population <-> 327
c lam_0_median_income <-> 331
c lam_0_population <-> 332
p wcnf 332 890 11  
11 1 0
11 2 -3 0
11 2 -8 0
11 -2 8 3 0
11 -3 4 0
11 -3 326 0
11 3 -326 -4 0
11 -4 -210 0
11 -4 5 0
11 4 -5 210 0
11 -5 -211 0
11 -5 6 0
11 5 -6 211 0
11 -6 7 0
11 -6 -213 0
11 6 213 -7 0
11 7 212 0
11 7 -120 0
11 -7 120 -212 0
11 -8 9 0
11 -8 327 0
11 8 -327 -9 0
11 -9 -184 0
11 -9 10 0
11 9 -10 184 0
11 -10 -186 0
11 -10 11 0
11 10 -11 186 0
11 -11 12 0
11 -11 -188 0
11 11 188 -12 0
11 12 187 0
11 12 -120 0
11 -12 120 -187 0
11 13 -14 0
11 13 -21 0
11 -13 21 14 0
1 13 0
11 -14 15 0
11 -14 331 0
11 14 -331 -15 0
11 -15 -318 0
11 -15 16 0
11 15 -16 318 0
11 -16 -319 0
11 -16 17 0
11 16 -17 319 0
11 -17 18 0
11 -17 19 0
11 17 -19 -18 0
11 18 320 0
11 18 -120 0
11 -18 120 -320 0
11 -19 -321 0
11 -19 20 0
11 19 -20 321 0
11 20 -2 0
11 20 322 0
11 -20 -322 2 0
11 -21 22 0
11 -21 332 0
11 21 -332 -22 0
11 -22 -279 0
11 -22 23 0
11 22 -23 279 0
11 -23 -281 0
11 -23 24 0
11 23 -24 281 0
11 -24 25 0
11 -24 26 0
11 24 -26 -25 0
11 25 283 0
11 25 -120 0
11 -25 120 -283 0
11 -26 -284 0
11 -26 27 0
11 26 -27 284 0
11 27 -2 0
11 27 285 0
11 -27 -285 2 0
11 28 -29 0
11 28 -34 0
11 -28 34 29 0
11 -29 30 0
11 -29 326 0
11 29 -326 -30 0
11 -30 -206 0
11 -30 31 0
11 30 -31 206 0
11 -31 -207 0
11 -31 32 0
11 31 -32 207 0
11 -32 -208 0
11 -32 33 0
11 32 -33 208 0
11 33 209 0
11 33 -119 0
11 -33 119 -209 0
11 -34 35 0
11 -34 327 0
11 34 -327 -35 0
11 -35 -210 0
11 -35 36 0
11 35 -36 210 0
11 -36 -211 0
11 -36 37 0
11 36 -37 211 0
11 -37 -212 0
11 -37 38 0
11 37 -38 212 0
11 38 213 0
11 38 -119 0
11 -38 119 -213 0
11 39 -40 0
11 39 -47 0
11 -39 47 40 0
1 39 0
11 -40 41 0
11 -40 331 0
11 40 -331 -41 0
11 -41 -313 0
11 -41 42 0
11 41 -42 313 0
11 -42 -314 0
11 -42 43 0
11 42 -43 314 0
11 -43 -315 0
11 -43 44 0
11 43 -44 315 0
11 -44 45 0
11 -44 46 0
11 44 -46 -45 0
11 45 316 0
11 45 -119 0
11 -45 119 -316 0
11 46 -28 0
11 46 317 0
11 -46 -317 28 0
11 -47 48 0
11 -47 332 0
11 47 -332 -48 0
11 -48 -318 0
11 -48 49 0
11 48 -49 318 0
11 -49 -319 0
11 -49 50 0
11 49 -50 319 0
11 -50 -320 0
11 -50 51 0
11 50 -51 320 0
11 -51 52 0
11 -51 53 0
11 51 -53 -52 0
11 52 321 0
11 52 -119 0
11 -52 119 -321 0
11 53 322 0
11 53 -28 0
11 -53 28 -322 0
11 54 -55 0
11 54 -60 0
11 -54 60 55 0
11 -55 56 0
11 -55 326 0
11 55 -326 -56 0
11 -56 -206 0
11 -56 57 0
11 56 -57 206 0
11 -57 -207 0
11 -57 58 0
11 57 -58 207 0
11 -58 -209 0
11 -58 59 0
11 58 -59 209 0
11 59 208 0
11 59 -120 0
11 -59 120 -208 0
11 -60 4 0
11 -60 327 0
11 60 -327 -4 0
11 61 -62 0
11 61 -69 0
11 -61 69 62 0
1 61 0
11 -62 63 0
11 -62 331 0
11 62 -331 -63 0
11 -63 -313 0
11 -63 64 0
11 63 -64 313 0
11 -64 -314 0
11 -64 65 0
11 64 -65 314 0
11 -65 66 0
11 -65 67 0
11 65 -67 -66 0
11 66 315 0
11 66 -120 0
11 -66 120 -315 0
11 -67 -316 0
11 -67 68 0
11 67 -68 316 0
11 68 317 0
11 68 -54 0
11 -68 54 -317 0
11 -69 70 0
11 -69 332 0
11 69 -332 -70 0
11 -70 -318 0
11 -70 71 0
11 70 -71 318 0
11 -71 -319 0
11 -71 72 0
11 71 -72 319 0
11 -72 18 0
11 -72 73 0
11 72 -73 -18 0
11 -73 -321 0
11 -73 74 0
11 73 -74 321 0
11 74 322 0
11 74 -54 0
11 -74 54 -322 0
11 75 -3 0
11 75 -60 0
11 -75 60 3 0
11 76 -77 0
11 76 -78 0
11 -76 78 77 0
1 76 0
11 -77 79 0
11 -77 331 0
11 77 -331 -79 0
11 -78 79 0
11 -78 332 0
11 78 -332 -79 0
11 -79 -318 0
11 -79 80 0
11 79 -80 318 0
11 -80 -319 0
11 -80 81 0
11 80 -81 319 0
11 -81 18 0
11 -81 82 0
11 81 -82 -18 0
11 -82 -321 0
11 -82 83 0
11 82 -83 321 0
11 83 322 0
11 83 -75 0
11 -83 75 -322 0
11 84 -55 0
11 84 -85 0
11 -84 85 55 0
11 -85 86 0
11 -85 327 0
11 85 -327 -86 0
11 -86 -201 0
11 -86 87 0
11 86 -87 201 0
11 -87 -203 0
11 -87 88 0
11 87 -88 203 0
11 -88 89 0
11 -88 -205 0
11 88 205 -89 0
11 89 204 0
11 89 -120 0
11 -89 120 -204 0
11 90 -91 0
11 90 -97 0
11 -90 97 91 0
1 90 0
11 -91 92 0
11 -91 331 0
11 91 -331 -92 0
11 -92 -313 0
11 -92 93 0
11 92 -93 313 0
11 -93 -314 0
11 -93 94 0
11 93 -94 314 0
11 -94 66 0
11 -94 95 0
11 94 -95 -66 0
11 -95 -316 0
11 -95 96 0
11 95 -96 316 0
11 96 317 0
11 96 -84 0
11 -96 84 -317 0
11 -97 98 0
11 -97 332 0
11 97 -332 -98 0
11 -98 -306 0
11 -98 99 0
11 98 -99 306 0
11 -99 -308 0
11 -99 100 0
11 99 -100 308 0
11 -100 101 0
11 -100 102 0
11 100 -102 -101 0
11 101 310 0
11 101 -120 0
11 -101 120 -310 0
11 -102 -311 0
11 -102 103 0
11 102 -103 311 0
11 103 -84 0
11 103 312 0
11 -103 -312 84 0
11 104 -3 0
11 104 -85 0
11 -104 85 3 0
11 105 -106 0
11 105 -112 0
11 -105 112 106 0
1 105 0
11 -106 107 0
11 -106 331 0
11 106 -331 -107 0
11 -107 -318 0
11 -107 108 0
11 107 -108 318 0
11 -108 -319 0
11 -108 109 0
11 108 -109 319 0
11 -109 18 0
11 -109 110 0
11 109 -110 -18 0
11 -110 -321 0
11 -110 111 0
11 110 -111 321 0
11 111 322 0
11 111 -104 0
11 -111 104 -322 0
11 -112 113 0
11 -112 332 0
11 112 -332 -113 0
11 -113 -306 0
11 -113 114 0
11 113 -114 306 0
11 -114 -308 0
11 -114 115 0
11 114 -115 308 0
11 -115 101 0
11 -115 116 0
11 115 -116 -101 0
11 -116 -311 0
11 -116 117 0
11 116 -117 311 0
11 117 312 0
11 117 -104 0
11 -117 104 -312 0
11 -118 0
11 121 326 0
11 121 -122 0
11 -121 122 -326 0
11 121 0
11 -122 -184 0
11 -122 123 0
11 122 -123 184 0
11 -123 -186 0
11 -123 124 0
11 123 -124 186 0
11 -124 -187 0
11 -124 125 0
11 124 -125 187 0
11 -125 -188 0
11 -125 126 0
11 125 -126 188 0
11 -126 -201 0
11 -126 127 0
11 126 -127 201 0
11 -127 -203 0
11 -127 128 0
11 127 -128 203 0
11 -128 -204 0
11 -128 -205 0
11 128 205 204 0
11 129 331 0
11 129 -130 0
11 -129 130 -331 0
11 129 0
11 -130 -279 0
11 -130 131 0
11 130 -131 279 0
11 -131 -281 0
11 -131 132 0
11 131 -132 281 0
11 -132 -283 0
11 -132 133 0
11 132 -133 283 0
11 -133 -284 0
11 -133 134 0
11 133 -134 284 0
11 -134 -285 0
11 -134 135 0
11 134 -135 285 0
11 -135 -306 0
11 -135 136 0
11 135 -136 306 0
11 -136 -308 0
11 -136 137 0
11 136 -137 308 0
11 -137 -310 0
11 -137 138 0
11 137 -138 310 0
11 -138 -311 0
11 -138 -312 0
11 138 312 311 0
11 139 326 0
11 139 -140 0
11 -139 140 -326 0
11 139 0
11 -140 141 0
11 -140 155 0
11 140 -155 -141 0
11 141 -142 0
11 141 -144 0
11 -141 144 142 0
11 -142 143 0
11 -142 206 0
11 142 -206 -143 0
11 -143 -207 0
11 -143 147 0
11 143 -147 207 0
11 144 -145 0
11 144 -148 0
11 -144 148 145 0
11 -145 146 0
11 -145 207 0
11 145 -207 -146 0
11 -146 -206 0
11 -146 147 0
11 146 -147 206 0
11 -147 -208 0
11 -147 -209 0
11 147 209 208 0
11 148 -149 0
11 148 -152 0
11 -148 152 149 0
11 -149 150 0
11 -149 208 0
11 149 -208 -150 0
11 -150 -206 0
11 -150 151 0
11 150 -151 206 0
11 -151 -207 0
11 -151 -209 0
11 151 209 207 0
11 -152 153 0
11 -152 209 0
11 152 -209 -153 0
11 -153 -206 0
11 -153 154 0
11 153 -154 206 0
11 -154 -207 0
11 -154 -208 0
11 154 208 207 0
11 155 -156 0
11 155 -158 0
11 -155 158 156 0
11 -156 157 0
11 -156 210 0
11 156 -210 -157 0
11 -157 -211 0
11 -157 161 0
11 157 -161 211 0
11 158 -159 0
11 158 -162 0
11 -158 162 159 0
11 -159 160 0
11 -159 211 0
11 159 -211 -160 0
11 -160 -210 0
11 -160 161 0
11 160 -161 210 0
11 -161 -212 0
11 -161 -213 0
11 161 213 212 0
11 162 -163 0
11 162 -166 0
11 -162 166 163 0
11 -163 164 0
11 -163 212 0
11 163 -212 -164 0
11 -164 -210 0
11 -164 165 0
11 164 -165 210 0
11 -165 -211 0
11 -165 -213 0
11 165 213 211 0
11 -166 167 0
11 -166 213 0
11 166 -213 -167 0
11 -167 -210 0
11 -167 168 0
11 167 -168 210 0
11 -168 -211 0
11 -168 -212 0
11 168 212 211 0
11 169 327 0
11 169 -170 0
11 -169 170 -327 0
11 169 0
11 -170 171 0
11 -170 189 0
11 170 -189 -171 0
11 171 -172 0
11 171 -174 0
11 -171 174 172 0
11 -172 173 0
11 -172 184 0
11 172 -184 -173 0
11 -173 -186 0
11 -173 177 0
11 173 -177 186 0
11 174 -175 0
11 174 -178 0
11 -174 178 175 0
11 -175 176 0
11 -175 186 0
11 175 -186 -176 0
11 -176 -184 0
11 -176 177 0
11 176 -177 184 0
11 -177 -187 0
11 -177 -188 0
11 177 188 187 0
11 178 -179 0
11 178 -182 0
11 -178 182 179 0
11 -179 180 0
11 -179 187 0
11 179 -187 -180 0
11 -180 -184 0
11 -180 181 0
11 180 -181 184 0
11 -181 -186 0
11 -181 -188 0
11 181 188 186 0
11 -182 183 0
11 -182 188 0
11 182 -188 -183 0
11 -183 -184 0
11 -183 185 0
11 183 -185 184 0
11 -185 -186 0
11 -185 -187 0
11 185 187 186 0
11 -189 140 0
11 -189 190 0
11 189 -190 -140 0
11 190 -191 0
11 190 -192 0
11 -190 192 191 0
11 -191 127 0
11 -191 201 0
11 191 -201 -127 0
11 192 -193 0
11 192 -195 0
11 -192 195 193 0
11 -193 194 0
11 -193 203 0
11 193 -203 -194 0
11 -194 -201 0
11 -194 128 0
11 194 -128 201 0
11 195 -196 0
11 195 -199 0
11 -195 199 196 0
11 -196 197 0
11 -196 204 0
11 196 -204 -197 0
11 -197 -201 0
11 -197 198 0
11 197 -198 201 0
11 -198 -203 0
11 -198 -205 0
11 198 205 203 0
11 -199 200 0
11 -199 205 0
11 199 -205 -200 0
11 -200 -201 0
11 -200 202 0
11 200 -202 201 0
11 -202 -203 0
11 -202 -204 0
11 202 204 203 0
11 214 331 0
11 214 -215 0
11 -214 215 -331 0
11 214 0
11 -215 216 0
11 -215 237 0
11 215 -237 -216 0
11 216 -217 0
11 216 -233 0
11 -216 233 217 0
11 217 -218 0
11 217 -220 0
11 -217 220 218 0
11 -218 219 0
11 -218 313 0
11 218 -313 -219 0
11 -219 -317 0
11 -219 235 0
11 219 -235 317 0
11 220 -221 0
11 220 -224 0
11 -220 224 221 0
11 -221 222 0
11 -221 314 0
11 221 -314 -222 0
11 -222 -317 0
11 -222 223 0
11 222 -223 317 0
11 -223 -313 0
11 -223 236 0
11 223 -236 313 0
11 224 -225 0
11 224 -229 0
11 -224 229 225 0
11 -225 226 0
11 -225 315 0
11 225 -315 -226 0
11 -226 -317 0
11 -226 227 0
11 226 -227 317 0
11 -227 -313 0
11 -227 228 0
11 227 -228 313 0
11 -228 -314 0
11 -228 -316 0
11 228 316 314 0
11 -229 230 0
11 -229 316 0
11 229 -316 -230 0
11 -230 -317 0
11 -230 231 0
11 230 -231 317 0
11 -231 -313 0
11 -231 232 0
11 231 -232 313 0
11 -232 -314 0
11 -232 -315 0
11 232 315 314 0
11 -233 234 0
11 -233 317 0
11 233 -317 -234 0
11 -234 -313 0
11 -234 235 0
11 234 -235 313 0
11 -235 -314 0
11 -235 236 0
11 235 -236 314 0
11 -236 -315 0
11 -236 -316 0
11 236 316 315 0
11 237 -238 0
11 237 -254 0
11 -237 254 238 0
11 238 -239 0
11 238 -241 0
11 -238 241 239 0
11 -239 240 0
11 -239 318 0
11 239 -318 -240 0
11 -240 -322 0
11 -240 256 0
11 240 -256 322 0
11 241 -242 0
11 241 -245 0
11 -241 245 242 0
11 -242 243 0
11 -242 319 0
11 242 -319 -243 0
11 -243 -322 0
11 -243 244 0
11 243 -244 322 0
11 -244 -318 0
11 -244 257 0
11 244 -257 318 0
11 245 -246 0
11 245 -250 0
11 -245 250 246 0
11 -246 247 0
11 -246 320 0
11 246 -320 -247 0
11 -247 -322 0
11 -247 248 0
11 247 -248 322 0
11 -248 -318 0
11 -248 249 0
11 248 -249 318 0
11 -249 -319 0
11 -249 -321 0
11 249 321 319 0
11 -250 251 0
11 -250 321 0
11 250 -321 -251 0
11 -251 -322 0
11 -251 252 0
11 251 -252 322 0
11 -252 -318 0
11 -252 253 0
11 252 -253 318 0
11 -253 -319 0
11 -253 -320 0
11 253 320 319 0
11 -254 255 0
11 -254 322 0
11 254 -322 -255 0
11 -255 -318 0
11 -255 256 0
11 255 -256 318 0
11 -256 -319 0
11 -256 257 0
11 256 -257 319 0
11 -257 -320 0
11 -257 -321 0
11 257 321 320 0
11 258 332 0
11 258 -259 0
11 -258 259 -332 0
11 258 0
11 -259 260 0
11 -259 286 0
11 259 -286 -260 0
11 260 -261 0
11 260 -277 0
11 -260 277 261 0
11 261 -262 0
11 261 -264 0
11 -261 264 262 0
11 -262 263 0
11 -262 279 0
11 262 -279 -263 0
11 -263 -285 0
11 -263 280 0
11 263 -280 285 0
11 264 -265 0
11 264 -268 0
11 -264 268 265 0
11 -265 266 0
11 -265 281 0
11 265 -281 -266 0
11 -266 -285 0
11 -266 267 0
11 266 -267 285 0
11 -267 -279 0
11 -267 282 0
11 267 -282 279 0
11 268 -269 0
11 268 -273 0
11 -268 273 269 0
11 -269 270 0
11 -269 283 0
11 269 -283 -270 0
11 -270 -285 0
11 -270 271 0
11 270 -271 285 0
11 -271 -279 0
11 -271 272 0
11 271 -272 279 0
11 -272 -281 0
11 -272 -284 0
11 272 284 281 0
11 -273 274 0
11 -273 284 0
11 273 -284 -274 0
11 -274 -285 0
11 -274 275 0
11 274 -275 285 0
11 -275 -279 0
11 -275 276 0
11 275 -276 279 0
11 -276 -281 0
11 -276 -283 0
11 276 283 281 0
11 -277 278 0
11 -277 285 0
11 277 -285 -278 0
11 -278 -279 0
11 -278 280 0
11 278 -280 279 0
11 -280 -281 0
11 -280 282 0
11 280 -282 281 0
11 -282 -283 0
11 -282 -284 0
11 282 284 283 0
11 -286 215 0
11 -286 287 0
11 286 -287 -215 0
11 287 -288 0
11 287 -304 0
11 -287 304 288 0
11 288 -289 0
11 288 -291 0
11 -288 291 289 0
11 -289 290 0
11 -289 306 0
11 289 -306 -290 0
11 -290 -312 0
11 -290 307 0
11 290 -307 312 0
11 291 -292 0
11 291 -295 0
11 -291 295 292 0
11 -292 293 0
11 -292 308 0
11 292 -308 -293 0
11 -293 -312 0
11 -293 294 0
11 293 -294 312 0
11 -294 -306 0
11 -294 309 0
11 294 -309 306 0
11 295 -296 0
11 295 -300 0
11 -295 300 296 0
11 -296 297 0
11 -296 310 0
11 296 -310 -297 0
11 -297 -312 0
11 -297 298 0
11 297 -298 312 0
11 -298 -306 0
11 -298 299 0
11 298 -299 306 0
11 -299 -308 0
11 -299 -311 0
11 299 311 308 0
11 -300 301 0
11 -300 311 0
11 300 -311 -301 0
11 -301 -312 0
11 -301 302 0
11 301 -302 312 0
11 -302 -306 0
11 -302 303 0
11 302 -303 306 0
11 -303 -308 0
11 -303 -310 0
11 303 310 308 0
11 -304 305 0
11 -304 312 0
11 304 -312 -305 0
11 -305 -306 0
11 -305 307 0
11 305 -307 306 0
11 -307 -308 0
11 -307 309 0
11 307 -309 308 0
11 -309 -310 0
11 -309 -311 0
11 309 311 310 0
11 323 -324 0
11 323 -325 0
11 -323 325 324 0
11 323 0
11 -324 -327 0
11 -324 326 0
11 324 -326 327 0
11 -325 -326 0
11 -325 327 0
11 325 -327 326 0
11 328 -329 0
11 328 -330 0
11 -328 330 329 0
11 328 0
11 -329 -332 0
11 -329 331 0
11 329 -331 332 0
11 -330 -331 0
11 -330 332 0
11 330 -332 331 0
